Problem:    Scheduling
Rows:       309
Columns:    133
Non-zeros:  848
Status:     OPTIMAL
Objective:  z = 8534.58194 (MAXimum)

   No.   Row name   St   Activity     Lower bound   Upper bound    Marginal
------ ------------ -- ------------- ------------- ------------- -------------
     1 incompat[1,1]
                    NU             0                          -0      0.115547 
     2 incompat[1,2]
                    NU             0                          -0     0.0610298 
     3 incompat[1,3]
                    NU             0                          -0     0.0610298 
     4 incompat[1,4]
                    NU             0                          -0     0.0610298 
     5 incompat[1,5]
                    NU             0                          -0     0.0610298 
     6 incompat[1,6]
                    NU             0                          -0     0.0444119 
     7 incompat[2,1]
                    NU             0                          -0      0.115547 
     8 incompat[2,2]
                    NU             0                          -0     0.0610298 
     9 incompat[2,3]
                    NU             0                          -0     0.0610298 
    10 incompat[2,4]
                    NU             0                          -0     0.0610298 
    11 incompat[2,5]
                    NU             0                          -0     0.0610298 
    12 incompat[2,6]
                    NU             0                          -0     0.0444119 
    13 incompat[3,1]
                    NU             0                          -0     0.0652453 
    14 incompat[3,2]
                    NU             0                          -0       0.17428 
    15 incompat[3,3]
                    NU             0                          -0       0.17428 
    16 incompat[3,4]
                    NU             0                          -0       0.17428 
    17 incompat[3,5]
                    NU             0                          -0       0.17428 
    18 incompat[3,6]
                    NU             0                          -0      0.207516 
    19 incompat[4,1]
                    NU             0                          -0         < eps
    20 incompat[4,2]
                    NU             0                          -0         < eps
    21 incompat[4,3]
                    NU             0                          -0         < eps
    22 incompat[4,4]
                    NU             0                          -0         < eps
    23 incompat[4,5]
                    NU             0                          -0         < eps
    24 incompat[4,6]
                    NU             0                          -0         < eps
    25 incompat[5,1]
                    NU             0                          -0         < eps
    26 incompat[5,2]
                    NU             0                          -0         < eps
    27 incompat[5,3]
                    NU             0                          -0         < eps
    28 incompat[5,4]
                    NU             0                          -0         < eps
    29 incompat[5,5]
                    NU             0                          -0         < eps
    30 incompat[5,6]
                    NU             0                          -0         < eps
    31 incompat[6,1]
                    NU             0                          -0         < eps
    32 incompat[6,2]
                    NU             0                          -0         < eps
    33 incompat[6,3]
                    NU             0                          -0         < eps
    34 incompat[6,4]
                    NU             0                          -0         < eps
    35 incompat[6,5]
                    NU             0                          -0         < eps
    36 incompat[6,6]
                    NU             0                          -0         < eps
    37 time[1,7]    B        17819.4                       28800 
    38 time[2,7]    B        17819.4                       28800 
    39 time[3,7]    NU         28800                       28800       0.29634 
    40 time[4,7]    B              0                       28800 
    41 time[5,7]    B              0                       28800 
    42 time[6,7]    B              0                       28800 
    43 ordLav[1,1,1,3]
                    NU             0                          -0     0.0326226 
    44 ordLav[1,1,2,3]
                    NU             0                          -0     0.0326226 
    45 ordLav[1,2,1,3]
                    NU             0                          -0     0.0545174 
    46 ordLav[1,2,2,3]
                    NU             0                          -0     0.0545174 
    47 ordLav[1,3,1,3]
                    B       -4880.27                          -0 
    48 ordLav[1,3,2,3]
                    B       -4880.27                          -0 
    49 ordLav[1,4,1,3]
                    B       -4880.27                          -0 
    50 ordLav[1,4,2,3]
                    B       -4880.27                          -0 
    51 ordLav[1,5,1,3]
                    B       -4880.27                          -0 
    52 ordLav[1,5,2,3]
                    B       -4880.27                          -0 
    53 ordLav[1,6,1,3]
                    NU             0                          -0     0.0166179 
    54 ordLav[1,6,2,3]
                    NU             0                          -0     0.0166179 
    55 ordLav[1,7,1,3]
                    NU             0                          -0     0.0444119 
    56 ordLav[1,7,2,3]
                    NU             0                          -0     0.0444119 
    57 ordLav[2,1,3,4]
                    NU             0                          -0         < eps
    58 ordLav[2,1,3,5]
                    NU             0                          -0         < eps
    59 ordLav[2,1,3,6]
                    NU             0                          -0         < eps
    60 ordLav[2,2,3,4]
                    NU             0                          -0         < eps
    61 ordLav[2,2,3,5]
                    NU             0                          -0         < eps
    62 ordLav[2,2,3,6]
                    NU             0                          -0         < eps
    63 ordLav[2,3,3,4]
                    NU             0                          -0         < eps
    64 ordLav[2,3,3,5]
                    NU             0                          -0         < eps
    65 ordLav[2,3,3,6]
                    NU             0                          -0         < eps
    66 ordLav[2,4,3,4]
                    NU             0                          -0         < eps
    67 ordLav[2,4,3,5]
                    NU             0                          -0         < eps
    68 ordLav[2,4,3,6]
                    NU             0                          -0         < eps
    69 ordLav[2,5,3,4]
                    NU             0                          -0         < eps
    70 ordLav[2,5,3,5]
                    NU             0                          -0         < eps
    71 ordLav[2,5,3,6]
                    NU             0                          -0         < eps
    72 ordLav[2,6,3,4]
                    NU             0                          -0         < eps
    73 ordLav[2,6,3,5]
                    NU             0                          -0         < eps
    74 ordLav[2,6,3,6]
                    NU             0                          -0         < eps
    75 ordLav[2,7,3,4]
                    NU             0                          -0         < eps
    76 ordLav[2,7,3,5]
                    NU             0                          -0         < eps
    77 ordLav[2,7,3,6]
                    NU             0                          -0         < eps
    78 timespent[1,1,1,1,1]
                    NS             0            -0             =      -0.14817 
    79 timespent[1,1,1,1,2]
                    B              0            -0             = 
    80 timespent[1,1,1,1,3]
                    B              0            -0             = 
    81 timespent[1,1,1,1,4]
                    B              0            -0             = 
    82 timespent[1,1,1,1,5]
                    B              0            -0             = 
    83 timespent[1,1,1,1,6]
                    B              0            -0             = 
    84 timespent[1,1,1,2,1]
                    B              0            -0             = 
    85 timespent[1,1,1,2,2]
                    B              0            -0             = 
    86 timespent[1,1,1,2,3]
                    B              0            -0             = 
    87 timespent[1,1,1,2,4]
                    B              0            -0             = 
    88 timespent[1,1,1,2,5]
                    B              0            -0             = 
    89 timespent[1,1,1,2,6]
                    B              0            -0             = 
    90 timespent[1,1,2,1,1]
                    NS             0            -0             =     -0.115547 
    91 timespent[1,1,2,1,2]
                    B              0            -0             = 
    92 timespent[1,1,2,1,3]
                    B              0            -0             = 
    93 timespent[1,1,2,1,4]
                    B              0            -0             = 
    94 timespent[1,1,2,1,5]
                    B              0            -0             = 
    95 timespent[1,1,2,1,6]
                    B              0            -0             = 
    96 timespent[1,1,2,2,1]
                    B              0            -0             = 
    97 timespent[1,1,2,2,2]
                    B              0            -0             = 
    98 timespent[1,1,2,2,3]
                    B              0            -0             = 
    99 timespent[1,1,2,2,4]
                    B              0            -0             = 
   100 timespent[1,1,2,2,5]
                    B              0            -0             = 
   101 timespent[1,1,2,2,6]
                    B              0            -0             = 
   102 timespent[1,1,3,1,1]
                    NS             0            -0             =    -0.0610298 
   103 timespent[1,1,3,1,2]
                    B              0            -0             = 
   104 timespent[1,1,3,1,3]
                    B              0            -0             = 
   105 timespent[1,1,3,1,4]
                    B              0            -0             = 
   106 timespent[1,1,3,1,5]
                    B              0            -0             = 
   107 timespent[1,1,3,1,6]
                    B              0            -0             = 
   108 timespent[1,1,3,2,1]
                    B              0            -0             = 
   109 timespent[1,1,3,2,2]
                    B              0            -0             = 
   110 timespent[1,1,3,2,3]
                    B              0            -0             = 
   111 timespent[1,1,3,2,4]
                    B              0            -0             = 
   112 timespent[1,1,3,2,5]
                    B              0            -0             = 
   113 timespent[1,1,3,2,6]
                    B              0            -0             = 
   114 timespent[1,1,4,1,1]
                    NS             0            -0             =    -0.0610298 
   115 timespent[1,1,4,1,2]
                    B              0            -0             = 
   116 timespent[1,1,4,1,3]
                    B              0            -0             = 
   117 timespent[1,1,4,1,4]
                    B              0            -0             = 
   118 timespent[1,1,4,1,5]
                    B              0            -0             = 
   119 timespent[1,1,4,1,6]
                    B              0            -0             = 
   120 timespent[1,1,4,2,1]
                    B              0            -0             = 
   121 timespent[1,1,4,2,2]
                    B              0            -0             = 
   122 timespent[1,1,4,2,3]
                    B              0            -0             = 
   123 timespent[1,1,4,2,4]
                    B              0            -0             = 
   124 timespent[1,1,4,2,5]
                    B              0            -0             = 
   125 timespent[1,1,4,2,6]
                    B              0            -0             = 
   126 timespent[1,1,5,1,1]
                    NS             0            -0             =    -0.0610298 
   127 timespent[1,1,5,1,2]
                    B              0            -0             = 
   128 timespent[1,1,5,1,3]
                    B              0            -0             = 
   129 timespent[1,1,5,1,4]
                    B              0            -0             = 
   130 timespent[1,1,5,1,5]
                    B              0            -0             = 
   131 timespent[1,1,5,1,6]
                    B              0            -0             = 
   132 timespent[1,1,5,2,1]
                    B              0            -0             = 
   133 timespent[1,1,5,2,2]
                    B              0            -0             = 
   134 timespent[1,1,5,2,3]
                    B              0            -0             = 
   135 timespent[1,1,5,2,4]
                    B              0            -0             = 
   136 timespent[1,1,5,2,5]
                    B              0            -0             = 
   137 timespent[1,1,5,2,6]
                    B              0            -0             = 
   138 timespent[1,1,6,1,1]
                    NS             0            -0             =    -0.0610298 
   139 timespent[1,1,6,1,2]
                    B              0            -0             = 
   140 timespent[1,1,6,1,3]
                    B              0            -0             = 
   141 timespent[1,1,6,1,4]
                    B              0            -0             = 
   142 timespent[1,1,6,1,5]
                    B              0            -0             = 
   143 timespent[1,1,6,1,6]
                    B              0            -0             = 
   144 timespent[1,1,6,2,1]
                    B              0            -0             = 
   145 timespent[1,1,6,2,2]
                    B              0            -0             = 
   146 timespent[1,1,6,2,3]
                    B              0            -0             = 
   147 timespent[1,1,6,2,4]
                    B              0            -0             = 
   148 timespent[1,1,6,2,5]
                    B              0            -0             = 
   149 timespent[1,1,6,2,6]
                    B              0            -0             = 
   150 timespent[1,1,7,1,1]
                    NS             0            -0             =    -0.0444119 
   151 timespent[1,1,7,1,2]
                    B              0            -0             = 
   152 timespent[1,1,7,1,3]
                    B              0            -0             = 
   153 timespent[1,1,7,1,4]
                    B              0            -0             = 
   154 timespent[1,1,7,1,5]
                    B              0            -0             = 
   155 timespent[1,1,7,1,6]
                    B              0            -0             = 
   156 timespent[1,1,7,2,1]
                    B              0            -0             = 
   157 timespent[1,1,7,2,2]
                    B              0            -0             = 
   158 timespent[1,1,7,2,3]
                    B              0            -0             = 
   159 timespent[1,1,7,2,4]
                    B              0            -0             = 
   160 timespent[1,1,7,2,5]
                    B              0            -0             = 
   161 timespent[1,1,7,2,6]
                    B              0            -0             = 
   162 timespent[1,2,1,1,1]
                    NS             0            -0             =      -0.14817 
   163 timespent[1,2,1,1,2]
                    B              0            -0             = 
   164 timespent[1,2,1,1,3]
                    B              0            -0             = 
   165 timespent[1,2,1,1,4]
                    B              0            -0             = 
   166 timespent[1,2,1,1,5]
                    B              0            -0             = 
   167 timespent[1,2,1,1,6]
                    B              0            -0             = 
   168 timespent[1,2,1,2,1]
                    B              0            -0             = 
   169 timespent[1,2,1,2,2]
                    B              0            -0             = 
   170 timespent[1,2,1,2,3]
                    B              0            -0             = 
   171 timespent[1,2,1,2,4]
                    B              0            -0             = 
   172 timespent[1,2,1,2,5]
                    B              0            -0             = 
   173 timespent[1,2,1,2,6]
                    B              0            -0             = 
   174 timespent[1,2,2,1,1]
                    NS             0            -0             =     -0.115547 
   175 timespent[1,2,2,1,2]
                    B              0            -0             = 
   176 timespent[1,2,2,1,3]
                    B              0            -0             = 
   177 timespent[1,2,2,1,4]
                    B              0            -0             = 
   178 timespent[1,2,2,1,5]
                    B              0            -0             = 
   179 timespent[1,2,2,1,6]
                    B              0            -0             = 
   180 timespent[1,2,2,2,1]
                    B              0            -0             = 
   181 timespent[1,2,2,2,2]
                    B              0            -0             = 
   182 timespent[1,2,2,2,3]
                    B              0            -0             = 
   183 timespent[1,2,2,2,4]
                    B              0            -0             = 
   184 timespent[1,2,2,2,5]
                    B              0            -0             = 
   185 timespent[1,2,2,2,6]
                    B              0            -0             = 
   186 timespent[1,2,3,1,1]
                    NS             0            -0             =    -0.0610298 
   187 timespent[1,2,3,1,2]
                    B              0            -0             = 
   188 timespent[1,2,3,1,3]
                    B              0            -0             = 
   189 timespent[1,2,3,1,4]
                    B              0            -0             = 
   190 timespent[1,2,3,1,5]
                    B              0            -0             = 
   191 timespent[1,2,3,1,6]
                    B              0            -0             = 
   192 timespent[1,2,3,2,1]
                    B              0            -0             = 
   193 timespent[1,2,3,2,2]
                    B              0            -0             = 
   194 timespent[1,2,3,2,3]
                    B              0            -0             = 
   195 timespent[1,2,3,2,4]
                    B              0            -0             = 
   196 timespent[1,2,3,2,5]
                    B              0            -0             = 
   197 timespent[1,2,3,2,6]
                    B              0            -0             = 
   198 timespent[1,2,4,1,1]
                    NS             0            -0             =    -0.0610298 
   199 timespent[1,2,4,1,2]
                    B              0            -0             = 
   200 timespent[1,2,4,1,3]
                    B              0            -0             = 
   201 timespent[1,2,4,1,4]
                    B              0            -0             = 
   202 timespent[1,2,4,1,5]
                    B              0            -0             = 
   203 timespent[1,2,4,1,6]
                    B              0            -0             = 
   204 timespent[1,2,4,2,1]
                    B              0            -0             = 
   205 timespent[1,2,4,2,2]
                    B              0            -0             = 
   206 timespent[1,2,4,2,3]
                    B              0            -0             = 
   207 timespent[1,2,4,2,4]
                    B              0            -0             = 
   208 timespent[1,2,4,2,5]
                    B              0            -0             = 
   209 timespent[1,2,4,2,6]
                    B              0            -0             = 
   210 timespent[1,2,5,1,1]
                    NS             0            -0             =    -0.0610298 
   211 timespent[1,2,5,1,2]
                    B              0            -0             = 
   212 timespent[1,2,5,1,3]
                    B              0            -0             = 
   213 timespent[1,2,5,1,4]
                    B              0            -0             = 
   214 timespent[1,2,5,1,5]
                    B              0            -0             = 
   215 timespent[1,2,5,1,6]
                    B              0            -0             = 
   216 timespent[1,2,5,2,1]
                    B              0            -0             = 
   217 timespent[1,2,5,2,2]
                    B              0            -0             = 
   218 timespent[1,2,5,2,3]
                    B              0            -0             = 
   219 timespent[1,2,5,2,4]
                    B              0            -0             = 
   220 timespent[1,2,5,2,5]
                    B              0            -0             = 
   221 timespent[1,2,5,2,6]
                    B              0            -0             = 
   222 timespent[1,2,6,1,1]
                    NS             0            -0             =    -0.0610298 
   223 timespent[1,2,6,1,2]
                    B              0            -0             = 
   224 timespent[1,2,6,1,3]
                    B              0            -0             = 
   225 timespent[1,2,6,1,4]
                    B              0            -0             = 
   226 timespent[1,2,6,1,5]
                    B              0            -0             = 
   227 timespent[1,2,6,1,6]
                    B              0            -0             = 
   228 timespent[1,2,6,2,1]
                    B              0            -0             = 
   229 timespent[1,2,6,2,2]
                    B              0            -0             = 
   230 timespent[1,2,6,2,3]
                    B              0            -0             = 
   231 timespent[1,2,6,2,4]
                    B              0            -0             = 
   232 timespent[1,2,6,2,5]
                    B              0            -0             = 
   233 timespent[1,2,6,2,6]
                    B              0            -0             = 
   234 timespent[1,2,7,1,1]
                    NS             0            -0             =    -0.0444119 
   235 timespent[1,2,7,1,2]
                    B              0            -0             = 
   236 timespent[1,2,7,1,3]
                    B              0            -0             = 
   237 timespent[1,2,7,1,4]
                    B              0            -0             = 
   238 timespent[1,2,7,1,5]
                    B              0            -0             = 
   239 timespent[1,2,7,1,6]
                    B              0            -0             = 
   240 timespent[1,2,7,2,1]
                    B              0            -0             = 
   241 timespent[1,2,7,2,2]
                    B              0            -0             = 
   242 timespent[1,2,7,2,3]
                    B              0            -0             = 
   243 timespent[1,2,7,2,4]
                    B              0            -0             = 
   244 timespent[1,2,7,2,5]
                    B              0            -0             = 
   245 timespent[1,2,7,2,6]
                    B              0            -0             = 
   246 timespent[2,3,1,3,1]
                    NS             0            -0             =    -0.0652453 
   247 timespent[2,3,1,3,2]
                    B              0            -0             = 
   248 timespent[2,3,1,3,3]
                    B              0            -0             = 
   249 timespent[2,3,1,3,4]
                    B              0            -0             = 
   250 timespent[2,3,1,3,5]
                    B              0            -0             = 
   251 timespent[2,3,1,3,6]
                    B              0            -0             = 
   252 timespent[2,3,2,3,1]
                    NS             0            -0             =      -0.17428 
   253 timespent[2,3,2,3,2]
                    B              0            -0             = 
   254 timespent[2,3,2,3,3]
                    B              0            -0             = 
   255 timespent[2,3,2,3,4]
                    B              0            -0             = 
   256 timespent[2,3,2,3,5]
                    B              0            -0             = 
   257 timespent[2,3,2,3,6]
                    B              0            -0             = 
   258 timespent[2,3,3,3,1]
                    NS             0            -0             =      -0.17428 
   259 timespent[2,3,3,3,2]
                    B              0            -0             = 
   260 timespent[2,3,3,3,3]
                    B              0            -0             = 
   261 timespent[2,3,3,3,4]
                    B              0            -0             = 
   262 timespent[2,3,3,3,5]
                    B              0            -0             = 
   263 timespent[2,3,3,3,6]
                    B              0            -0             = 
   264 timespent[2,3,4,3,1]
                    NS             0            -0             =      -0.17428 
   265 timespent[2,3,4,3,2]
                    B              0            -0             = 
   266 timespent[2,3,4,3,3]
                    B              0            -0             = 
   267 timespent[2,3,4,3,4]
                    B              0            -0             = 
   268 timespent[2,3,4,3,5]
                    B              0            -0             = 
   269 timespent[2,3,4,3,6]
                    B              0            -0             = 
   270 timespent[2,3,5,3,1]
                    NS             0            -0             =      -0.17428 
   271 timespent[2,3,5,3,2]
                    B              0            -0             = 
   272 timespent[2,3,5,3,3]
                    B              0            -0             = 
   273 timespent[2,3,5,3,4]
                    B              0            -0             = 
   274 timespent[2,3,5,3,5]
                    B              0            -0             = 
   275 timespent[2,3,5,3,6]
                    B              0            -0             = 
   276 timespent[2,3,6,3,1]
                    NS             0            -0             =     -0.207516 
   277 timespent[2,3,6,3,2]
                    B              0            -0             = 
   278 timespent[2,3,6,3,3]
                    B              0            -0             = 
   279 timespent[2,3,6,3,4]
                    B              0            -0             = 
   280 timespent[2,3,6,3,5]
                    B              0            -0             = 
   281 timespent[2,3,6,3,6]
                    B              0            -0             = 
   282 timespent[2,3,7,3,1]
                    NS             0            -0             =      -0.29634 
   283 timespent[2,3,7,3,2]
                    B              0            -0             = 
   284 timespent[2,3,7,3,3]
                    B              0            -0             = 
   285 timespent[2,3,7,3,4]
                    B              0            -0             = 
   286 timespent[2,3,7,3,5]
                    B              0            -0             = 
   287 timespent[2,3,7,3,6]
                    B              0            -0             = 
   288 integrity[1,1]
                    NS             0            -0             =      -17.7804 
   289 integrity[1,2]
                    NS             0            -0             =      -14.4434 
   290 integrity[1,3]
                    NS             0            -0             =      -10.9854 
   291 integrity[1,4]
                    NS             0            -0             =      -14.0369 
   292 integrity[1,5]
                    NS             0            -0             =      -14.0369 
   293 integrity[1,6]
                    NS             0            -0             =      -7.32358 
   294 integrity[1,7]
                    NS             0            -0             =      -5.32943 
   295 integrity[2,1]
                    NS             0            -0             =      -5.21962 
   296 integrity[2,2]
                    NS             0            -0             =      -16.5566 
   297 integrity[2,3]
                    NS             0            -0             =      -19.0146 
   298 integrity[2,4]
                    NS             0            -0             =      -13.9631 
   299 integrity[2,5]
                    NS             0            -0             =      -10.9631 
   300 integrity[2,6]
                    NS             0            -0             =      -18.6764 
   301 integrity[2,7]
                    NS             0            -0             =      -26.6706 
   302 integrity[3,1]
                    NS             0            -0             =         < eps
   303 integrity[3,2]
                    NS             0            -0             =         < eps
   304 integrity[3,3]
                    NS             0            -0             =         < eps
   305 integrity[3,4]
                    NS             0            -0             =         < eps
   306 integrity[3,5]
                    NS             0            -0             =         < eps
   307 integrity[3,6]
                    NS             0            -0             =         < eps
   308 integrity[3,7]
                    NS             0            -0             =         < eps
   309 z            B        8534.58                             

   No. Column name  St   Activity     Lower bound   Upper bound    Marginal
------ ------------ -- ------------- ------------- ------------- -------------
     1 s[2,1]       B        2408.03             0               
     2 s[3,1]       B        5618.73             0               
     3 s[4,1]       B        5618.73             0               
     4 s[5,1]       B        5618.73             0               
     5 s[6,1]       B        5618.73             0               
     6 s[7,1]       B          10499             0               
     7 s[2,2]       B        2408.03             0               
     8 s[3,2]       B        5618.73             0               
     9 s[4,2]       B        5618.73             0               
    10 s[5,2]       B        5618.73             0               
    11 s[6,2]       B        5618.73             0               
    12 s[7,2]       B          10499             0               
    13 s[2,3]       B        5618.73             0               
    14 s[3,3]       B          10499             0               
    15 s[4,3]       B          10499             0               
    16 s[5,3]       B          10499             0               
    17 s[6,3]       B          10499             0               
    18 s[7,3]       B        17819.4             0               
    19 s[2,4]       B          10499             0               
    20 s[3,4]       B          10499             0               
    21 s[4,4]       B          10499             0               
    22 s[5,4]       B          10499             0               
    23 s[6,4]       B        17819.4             0               
    24 s[7,4]       B          28800             0               
    25 s[2,5]       B          10499             0               
    26 s[3,5]       B          10499             0               
    27 s[4,5]       B          10499             0               
    28 s[5,5]       B          10499             0               
    29 s[6,5]       B        17819.4             0               
    30 s[7,5]       B          28800             0               
    31 s[2,6]       B          10499             0               
    32 s[3,6]       B          10499             0               
    33 s[4,6]       B          10499             0               
    34 s[5,6]       B          10499             0               
    35 s[6,6]       B        17819.4             0               
    36 s[7,6]       B          28800             0               
    37 s[1,3]       B        2408.03             0               
    38 s[1,4]       B        5618.73             0               
    39 s[1,5]       B        5618.73             0               
    40 s[1,6]       B        5618.73             0               
    41 s[1,1]       NL             0             0                    -0.14817 
    42 s[1,2]       NL             0             0                    -0.14817 
    43 e[1,1]       B        2408.03             0               
    44 e[2,1]       B        5618.73             0               
    45 e[3,1]       B        5618.73             0               
    46 e[4,1]       B        5618.73             0               
    47 e[5,1]       B        5618.73             0               
    48 e[6,1]       B          10499             0               
    49 e[1,2]       B        2408.03             0               
    50 e[2,2]       B        5618.73             0               
    51 e[3,2]       B        5618.73             0               
    52 e[4,2]       B        5618.73             0               
    53 e[5,2]       B        5618.73             0               
    54 e[6,2]       B          10499             0               
    55 e[1,3]       B        5618.73             0               
    56 e[2,3]       B          10499             0               
    57 e[3,3]       B          10499             0               
    58 e[4,3]       B          10499             0               
    59 e[5,3]       B          10499             0               
    60 e[6,3]       B        17819.4             0               
    61 e[1,4]       B          10499             0               
    62 e[2,4]       B          10499             0               
    63 e[3,4]       B          10499             0               
    64 e[4,4]       B          10499             0               
    65 e[5,4]       B        17819.4             0               
    66 e[6,4]       B          28800             0               
    67 e[1,5]       B          10499             0               
    68 e[2,5]       B          10499             0               
    69 e[3,5]       B          10499             0               
    70 e[4,5]       B          10499             0               
    71 e[5,5]       B        17819.4             0               
    72 e[6,5]       B          28800             0               
    73 e[1,6]       B          10499             0               
    74 e[2,6]       B          10499             0               
    75 e[3,6]       B          10499             0               
    76 e[4,6]       B          10499             0               
    77 e[5,6]       B        17819.4             0               
    78 e[6,6]       B          28800             0               
    79 e[7,1]       B        17819.4             0               
    80 e[7,2]       B        17819.4             0               
    81 e[7,3]       B          28800             0               
    82 e[7,4]       NL             0             0                       < eps
    83 e[7,5]       NL             0             0                       < eps
    84 e[7,6]       NL             0             0                       < eps
    85 x[1,1]       B        20.0669             0               
    86 x[1,2]       B        25.6856             0               
    87 x[1,3]       NL             0             0                       < eps
    88 x[1,4]       NL             0             0                       < eps
    89 x[1,5]       NL             0             0                       < eps
    90 x[1,6]       B        40.6689             0               
    91 x[1,7]       B        61.0033             0               
    92 x[2,1]       B        20.0669             0               
    93 x[2,2]       B        25.6856             0               
    94 x[2,3]       B              0             0               
    95 x[2,4]       B              0             0               
    96 x[2,5]       B              0             0               
    97 x[2,6]       B        40.6689             0               
    98 x[2,7]       B        61.0033             0               
    99 x[3,1]       B        40.1338             0               
   100 x[3,2]       B        51.3712             0               
   101 x[3,3]       NL             0             0                   -0.156169 
   102 x[3,4]       NL             0             0                    -12.1789 
   103 x[3,5]       NL             0             0                    -15.1789 
   104 x[3,6]       B        81.3378             0               
   105 x[3,7]       B        122.007             0               
   106 x[4,1]       NL             0             0                       < eps
   107 x[5,1]       NL             0             0                       < eps
   108 x[6,1]       B        40.1338             0               
   109 x[4,2]       NL             0             0                       < eps
   110 x[5,2]       NL             0             0                       < eps
   111 x[6,2]       B        51.3712             0               
   112 x[4,3]       NL             0             0                       < eps
   113 x[5,3]       NL             0             0                       < eps
   114 x[6,3]       B              0             0               
   115 x[4,4]       NL             0             0                       < eps
   116 x[5,4]       NL             0             0                       < eps
   117 x[6,4]       B              0             0               
   118 x[4,5]       NL             0             0                       < eps
   119 x[5,5]       NL             0             0                       < eps
   120 x[6,5]       B              0             0               
   121 x[4,6]       NL             0             0                       < eps
   122 x[5,6]       NL             0             0                       < eps
   123 x[6,6]       B        81.3378             0               
   124 x[4,7]       NL             0             0                       < eps
   125 x[5,7]       NL             0             0                       < eps
   126 x[6,7]       B        122.007             0               
   127 y[1]         B        40.1338             0               
   128 y[2]         B        51.3712             0               
   129 y[3]         B              0             0               
   130 y[4]         B              0             0               
   131 y[5]         B              0             0               
   132 y[6]         B        81.3378             0               
   133 y[7]         B        122.007             0               

Karush-Kuhn-Tucker optimality conditions:

KKT.PE: max.abs.err = 3.64e-012 on row 18
        max.rel.err = 1.74e-016 on row 300
        High quality

KKT.PB: max.abs.err = 1.82e-012 on row 151
        max.rel.err = 1.82e-012 on row 151
        High quality

KKT.DE: max.abs.err = 7.11e-015 on column 100
        max.rel.err = 2.08e-016 on column 100
        High quality

KKT.DB: max.abs.err = 0.00e+000 on row 0
        max.rel.err = 0.00e+000 on row 0
        High quality

End of output
